TCS_Benchmarks/redos_fix/regexlib2_output_distinct_3511_3510_1_0.smt2
(set-logic QF_S)
(declare-const x String)
(assert (str.in.re x (re.inter  (re.union  (re.++ (re.range "\u{30}" "\u{39}") (re.range "\u{30}" "\u{39}")) (re.union  (re.++ (re.range "\u{30}" "\u{39}")   (re.++ (re.range "\u{30}" "\u{39}") (re.range "\u{30}" "\u{39}"))) (re.union  (re.++ (re.range "\u{30}" "\u{39}")   (re.++ (re.range "\u{30}" "\u{39}")   (re.++ (re.range "\u{30}" "\u{39}") (re.range "\u{30}" "\u{39}"))))  (re.++ (re.range "\u{30}" "\u{39}")   (re.++ (re.range "\u{30}" "\u{39}")   (re.++ (re.range "\u{30}" "\u{39}")   (re.++ (re.range "\u{30}" "\u{39}") (re.range "\u{30}" "\u{39}"))))))))  (re.++  (re.union  (re.++ (re.range "\u{30}" "\u{39}") (re.range "\u{30}" "\u{39}")) (re.union  (re.++ (re.range "\u{30}" "\u{39}")   (re.++ (re.range "\u{30}" "\u{39}") (re.range "\u{30}" "\u{39}"))) (re.union  (re.++ (re.range "\u{30}" "\u{39}")   (re.++ (re.range "\u{30}" "\u{39}")   (re.++ (re.range "\u{30}" "\u{39}") (re.range "\u{30}" "\u{39}"))))  (re.++ (re.range "\u{30}" "\u{39}")   (re.++ (re.range "\u{30}" "\u{39}")   (re.++ (re.range "\u{30}" "\u{39}")   (re.++ (re.range "\u{30}" "\u{39}") (re.range "\u{30}" "\u{39}")))))))) (re.++  (re.++ (re.opt  (str.to.re "\u{29}") ) (re.++ (re.opt  (re.union (re.range "\u{30}" "\u{39}") (re.union  (str.to.re "\u{2d}")  (str.to.re "\u{20}"))) ) (re.++  (str.to.re "\u{31}")  (str.to.re "\u{35}"))))  (re.union  (re.++  (re.union (re.range "\u{30}" "\u{39}") (re.union  (str.to.re "\u{2d}")  (str.to.re "\u{20}"))) (re.++  (re.union (re.range "\u{30}" "\u{39}") (re.union  (str.to.re "\u{2d}")  (str.to.re "\u{20}"))) (re.++  (re.union (re.range "\u{30}" "\u{39}") (re.union  (str.to.re "\u{2d}")  (str.to.re "\u{20}"))) (re.++  (re.union (re.range "\u{30}" "\u{39}") (re.union  (str.to.re "\u{2d}")  (str.to.re "\u{20}"))) (re.++  (re.union (re.range "\u{30}" "\u{39}") (re.union  (str.to.re "\u{2d}")  (str.to.re "\u{20}")))  (re.union (re.range "\u{30}" "\u{39}") (re.union  (str.to.re "\u{2d}")  (str.to.re "\u{20}")))))))) (re.union  (re.++  (re.union (re.range "\u{30}" "\u{39}") (re.union  (str.to.re "\u{2d}")  (str.to.re "\u{20}")))   (re.++  (re.union (re.range "\u{30}" "\u{39}") (re.union  (str.to.re "\u{2d}")  (str.to.re "\u{20}"))) (re.++  (re.union (re.range "\u{30}" "\u{39}") (re.union  (str.to.re "\u{2d}")  (str.to.re "\u{20}"))) (re.++  (re.union (re.range "\u{30}" "\u{39}") (re.union  (str.to.re "\u{2d}")  (str.to.re "\u{20}"))) (re.++  (re.union (re.range "\u{30}" "\u{39}") (re.union  (str.to.re "\u{2d}")  (str.to.re "\u{20}"))) (re.++  (re.union (re.range "\u{30}" "\u{39}") (re.union  (str.to.re "\u{2d}")  (str.to.re "\u{20}")))  (re.union (re.range "\u{30}" "\u{39}") (re.union  (str.to.re "\u{2d}")  (str.to.re "\u{20}"))))))))) (re.union  (re.++  (re.union (re.range "\u{30}" "\u{39}") (re.union  (str.to.re "\u{2d}")  (str.to.re "\u{20}")))   (re.++  (re.union (re.range "\u{30}" "\u{39}") (re.union  (str.to.re "\u{2d}")  (str.to.re "\u{20}")))   (re.++  (re.union (re.range "\u{30}" "\u{39}") (re.union  (str.to.re "\u{2d}")  (str.to.re "\u{20}"))) (re.++  (re.union (re.range "\u{30}" "\u{39}") (re.union  (str.to.re "\u{2d}")  (str.to.re "\u{20}"))) (re.++  (re.union (re.range "\u{30}" "\u{39}") (re.union  (str.to.re "\u{2d}")  (str.to.re "\u{20}"))) (re.++  (re.union (re.range "\u{30}" "\u{39}") (re.union  (str.to.re "\u{2d}")  (str.to.re "\u{20}"))) (re.++  (re.union (re.range "\u{30}" "\u{39}") (re.union  (str.to.re "\u{2d}")  (str.to.re "\u{20}")))  (re.union (re.range "\u{30}" "\u{39}") (re.union  (str.to.re "\u{2d}")  (str.to.re "\u{20}")))))))))) (re.union  (re.++  (re.union (re.range "\u{30}" "\u{39}") (re.union  (str.to.re "\u{2d}")  (str.to.re "\u{20}")))   (re.++  (re.union (re.range "\u{30}" "\u{39}") (re.union  (str.to.re "\u{2d}")  (str.to.re "\u{20}")))   (re.++  (re.union (re.range "\u{30}" "\u{39}") (re.union  (str.to.re "\u{2d}")  (str.to.re "\u{20}")))   (re.++  (re.union (re.range "\u{30}" "\u{39}") (re.union  (str.to.re "\u{2d}")  (str.to.re "\u{20}"))) (re.++  (re.union (re.range "\u{30}" "\u{39}") (re.union  (str.to.re "\u{2d}")  (str.to.re "\u{20}"))) (re.++  (re.union (re.range "\u{30}" "\u{39}") (re.union  (str.to.re "\u{2d}")  (str.to.re "\u{20}"))) (re.++  (re.union (re.range "\u{30}" "\u{39}") (re.union  (str.to.re "\u{2d}")  (str.to.re "\u{20}"))) (re.++  (re.union (re.range "\u{30}" "\u{39}") (re.union  (str.to.re "\u{2d}")  (str.to.re "\u{20}")))  (re.union (re.range "\u{30}" "\u{39}") (re.union  (str.to.re "\u{2d}")  (str.to.re "\u{20}"))))))))))) (re.union  (re.++  (re.union (re.range "\u{30}" "\u{39}") (re.union  (str.to.re "\u{2d}")  (str.to.re "\u{20}")))   (re.++  (re.union (re.range "\u{30}" "\u{39}") (re.union  (str.to.re "\u{2d}")  (str.to.re "\u{20}")))   (re.++  (re.union (re.range "\u{30}" "\u{39}") (re.union  (str.to.re "\u{2d}")  (str.to.re "\u{20}")))   (re.++  (re.union (re.range "\u{30}" "\u{39}") (re.union  (str.to.re "\u{2d}")  (str.to.re "\u{20}")))   (re.++  (re.union (re.range "\u{30}" "\u{39}") (re.union  (str.to.re "\u{2d}")  (str.to.re "\u{20}"))) (re.++  (re.union (re.range "\u{30}" "\u{39}") (re.union  (str.to.re "\u{2d}")  (str.to.re "\u{20}"))) (re.++  (re.union (re.range "\u{30}" "\u{39}") (re.union  (str.to.re "\u{2d}")  (str.to.re "\u{20}"))) (re.++  (re.union (re.range "\u{30}" "\u{39}") (re.union  (str.to.re "\u{2d}")  (str.to.re "\u{20}"))) (re.++  (re.union (re.range "\u{30}" "\u{39}") (re.union  (str.to.re "\u{2d}")  (str.to.re "\u{20}")))  (re.union (re.range "\u{30}" "\u{39}") (re.union  (str.to.re "\u{2d}")  (str.to.re "\u{20}")))))))))))) (re.union  (re.++  (re.union (re.range "\u{30}" "\u{39}") (re.union  (str.to.re "\u{2d}")  (str.to.re "\u{20}")))   (re.++  (re.union (re.range "\u{30}" "\u{39}") (re.union  (str.to.re "\u{2d}")  (str.to.re "\u{20}")))   (re.++  (re.union (re.range "\u{30}" "\u{39}") (re.union  (str.to.re "\u{2d}")  (str.to.re "\u{20}")))   (re.++  (re.union (re.range "\u{30}" "\u{39}") (re.union  (str.to.re "\u{2d}")  (str.to.re "\u{20}")))   (re.++  (re.union (re.range "\u{30}" "\u{39}") (re.union  (str.to.re "\u{2d}")  (str.to.re "\u{20}")))   (re.++  (re.union (re.range "\u{30}" "\u{39}") (re.union  (str.to.re "\u{2d}")  (str.to.re "\u{20}"))) (re.++  (re.union (re.range "\u{30}" "\u{39}") (re.union  (str.to.re "\u{2d}")  (str.to.re "\u{20}"))) (re.++  (re.union (re.range "\u{30}" "\u{39}") (re.union  (str.to.re "\u{2d}")  (str.to.re "\u{20}"))) (re.++  (re.union (re.range "\u{30}" "\u{39}") (re.union  (str.to.re "\u{2d}")  (str.to.re "\u{20}"))) (re.++  (re.union (re.range "\u{30}" "\u{39}") (re.union  (str.to.re "\u{2d}")  (str.to.re "\u{20}")))  (re.union (re.range "\u{30}" "\u{39}") (re.union  (str.to.re "\u{2d}")  (str.to.re "\u{20}"))))))))))))) (re.union  (re.++  (re.union (re.range "\u{30}" "\u{39}") (re.union  (str.to.re "\u{2d}")  (str.to.re "\u{20}")))   (re.++  (re.union (re.range "\u{30}" "\u{39}") (re.union  (str.to.re "\u{2d}")  (str.to.re "\u{20}")))   (re.++  (re.union (re.range "\u{30}" "\u{39}") (re.union  (str.to.re "\u{2d}")  (str.to.re "\u{20}")))   (re.++  (re.union (re.range "\u{30}" "\u{39}") (re.union  (str.to.re "\u{2d}")  (str.to.re "\u{20}")))   (re.++  (re.union (re.range "\u{30}" "\u{39}") (re.union  (str.to.re "\u{2d}")  (str.to.re "\u{20}")))   (re.++  (re.union (re.range "\u{30}" "\u{39}") (re.union  (str.to.re "\u{2d}")  (str.to.re "\u{20}")))   (re.++  (re.union (re.range "\u{30}" "\u{39}") (re.union  (str.to.re "\u{2d}")  (str.to.re "\u{20}"))) (re.++  (re.union (re.range "\u{30}" "\u{39}") (re.union  (str.to.re "\u{2d}")  (str.to.re "\u{20}"))) (re.++  (re.union (re.range "\u{30}" "\u{39}") (re.union  (str.to.re "\u{2d}")  (str.to.re "\u{20}"))) (re.++  (re.union (re.range "\u{30}" "\u{39}") (re.union  (str.to.re "\u{2d}")  (str.to.re "\u{20}"))) (re.++  (re.union (re.range "\u{30}" "\u{39}") (re.union  (str.to.re "\u{2d}")  (str.to.re "\u{20}")))  (re.union (re.range "\u{30}" "\u{39}") (re.union  (str.to.re "\u{2d}")  (str.to.re "\u{20}"))))))))))))))  (re.++  (re.union (re.range "\u{30}" "\u{39}") (re.union  (str.to.re "\u{2d}")  (str.to.re "\u{20}")))   (re.++  (re.union (re.range "\u{30}" "\u{39}") (re.union  (str.to.re "\u{2d}")  (str.to.re "\u{20}")))   (re.++  (re.union (re.range "\u{30}" "\u{39}") (re.union  (str.to.re "\u{2d}")  (str.to.re "\u{20}")))   (re.++  (re.union (re.range "\u{30}" "\u{39}") (re.union  (str.to.re "\u{2d}")  (str.to.re "\u{20}")))   (re.++  (re.union (re.range "\u{30}" "\u{39}") (re.union  (str.to.re "\u{2d}")  (str.to.re "\u{20}")))   (re.++  (re.union (re.range "\u{30}" "\u{39}") (re.union  (str.to.re "\u{2d}")  (str.to.re "\u{20}")))   (re.++  (re.union (re.range "\u{30}" "\u{39}") (re.union  (str.to.re "\u{2d}")  (str.to.re "\u{20}")))   (re.++  (re.union (re.range "\u{30}" "\u{39}") (re.union  (str.to.re "\u{2d}")  (str.to.re "\u{20}"))) (re.++  (re.union (re.range "\u{30}" "\u{39}") (re.union  (str.to.re "\u{2d}")  (str.to.re "\u{20}"))) (re.++  (re.union (re.range "\u{30}" "\u{39}") (re.union  (str.to.re "\u{2d}")  (str.to.re "\u{20}"))) (re.++  (re.union (re.range "\u{30}" "\u{39}") (re.union  (str.to.re "\u{2d}")  (str.to.re "\u{20}"))) (re.++  (re.union (re.range "\u{30}" "\u{39}") (re.union  (str.to.re "\u{2d}")  (str.to.re "\u{20}")))  (re.union (re.range "\u{30}" "\u{39}") (re.union  (str.to.re "\u{2d}")  (str.to.re "\u{20}"))))))))))))))))))))))))  (re.union  (re.++  (re.union (re.range "\u{30}" "\u{39}") (re.union  (str.to.re "\u{2d}")  (str.to.re "\u{20}"))) (re.++  (re.union (re.range "\u{30}" "\u{39}") (re.union  (str.to.re "\u{2d}")  (str.to.re "\u{20}"))) (re.++  (re.union (re.range "\u{30}" "\u{39}") (re.union  (str.to.re "\u{2d}")  (str.to.re "\u{20}"))) (re.++  (re.union (re.range "\u{30}" "\u{39}") (re.union  (str.to.re "\u{2d}")  (str.to.re "\u{20}"))) (re.++  (re.union (re.range "\u{30}" "\u{39}") (re.union  (str.to.re "\u{2d}")  (str.to.re "\u{20}")))  (re.union (re.range "\u{30}" "\u{39}") (re.union  (str.to.re "\u{2d}")  (str.to.re "\u{20}")))))))) (re.union  (re.++  (re.union (re.range "\u{30}" "\u{39}") (re.union  (str.to.re "\u{2d}")  (str.to.re "\u{20}")))   (re.++  (re.union (re.range "\u{30}" "\u{39}") (re.union  (str.to.re "\u{2d}")  (str.to.re "\u{20}"))) (re.++  (re.union (re.range "\u{30}" "\u{39}") (re.union  (str.to.re "\u{2d}")  (str.to.re "\u{20}"))) (re.++  (re.union (re.range "\u{30}" "\u{39}") (re.union  (str.to.re "\u{2d}")  (str.to.re "\u{20}"))) (re.++  (re.union (re.range "\u{30}" "\u{39}") (re.union  (str.to.re "\u{2d}")  (str.to.re "\u{20}"))) (re.++  (re.union (re.range "\u{30}" "\u{39}") (re.union  (str.to.re "\u{2d}")  (str.to.re "\u{20}")))  (re.union (re.range "\u{30}" "\u{39}") (re.union  (str.to.re "\u{2d}")  (str.to.re "\u{20}"))))))))) (re.union  (re.++  (re.union (re.range "\u{30}" "\u{39}") (re.union  (str.to.re "\u{2d}")  (str.to.re "\u{20}")))   (re.++  (re.union (re.range "\u{30}" "\u{39}") (re.union  (str.to.re "\u{2d}")  (str.to.re "\u{20}")))   (re.++  (re.union (re.range "\u{30}" "\u{39}") (re.union  (str.to.re "\u{2d}")  (str.to.re "\u{20}"))) (re.++  (re.union (re.range "\u{30}" "\u{39}") (re.union  (str.to.re "\u{2d}")  (str.to.re "\u{20}"))) (re.++  (re.union (re.range "\u{30}" "\u{39}") (re.union  (str.to.re "\u{2d}")  (str.to.re "\u{20}"))) (re.++  (re.union (re.range "\u{30}" "\u{39}") (re.union  (str.to.re "\u{2d}")  (str.to.re "\u{20}"))) (re.++  (re.union (re.range "\u{30}" "\u{39}") (re.union  (str.to.re "\u{2d}")  (str.to.re "\u{20}")))  (re.union (re.range "\u{30}" "\u{39}") (re.union  (str.to.re "\u{2d}")  (str.to.re "\u{20}")))))))))) (re.union  (re.++  (re.union (re.range "\u{30}" "\u{39}") (re.union  (str.to.re "\u{2d}")  (str.to.re "\u{20}")))   (re.++  (re.union (re.range "\u{30}" "\u{39}") (re.union  (str.to.re "\u{2d}")  (str.to.re "\u{20}")))   (re.++  (re.union (re.range "\u{30}" "\u{39}") (re.union  (str.to.re "\u{2d}")  (str.to.re "\u{20}")))   (re.++  (re.union (re.range "\u{30}" "\u{39}") (re.union  (str.to.re "\u{2d}")  (str.to.re "\u{20}"))) (re.++  (re.union (re.range "\u{30}" "\u{39}") (re.union  (str.to.re "\u{2d}")  (str.to.re "\u{20}"))) (re.++  (re.union (re.range "\u{30}" "\u{39}") (re.union  (str.to.re "\u{2d}")  (str.to.re "\u{20}"))) (re.++  (re.union (re.range "\u{30}" "\u{39}") (re.union  (str.to.re "\u{2d}")  (str.to.re "\u{20}"))) (re.++  (re.union (re.range "\u{30}" "\u{39}") (re.union  (str.to.re "\u{2d}")  (str.to.re "\u{20}")))  (re.union (re.range "\u{30}" "\u{39}") (re.union  (str.to.re "\u{2d}")  (str.to.re "\u{20}"))))))))))) (re.union  (re.++  (re.union (re.range "\u{30}" "\u{39}") (re.union  (str.to.re "\u{2d}")  (str.to.re "\u{20}")))   (re.++  (re.union (re.range "\u{30}" "\u{39}") (re.union  (str.to.re "\u{2d}")  (str.to.re "\u{20}")))   (re.++  (re.union (re.range "\u{30}" "\u{39}") (re.union  (str.to.re "\u{2d}")  (str.to.re "\u{20}")))   (re.++  (re.union (re.range "\u{30}" "\u{39}") (re.union  (str.to.re "\u{2d}")  (str.to.re "\u{20}")))   (re.++  (re.union (re.range "\u{30}" "\u{39}") (re.union  (str.to.re "\u{2d}")  (str.to.re "\u{20}"))) (re.++  (re.union (re.range "\u{30}" "\u{39}") (re.union  (str.to.re "\u{2d}")  (str.to.re "\u{20}"))) (re.++  (re.union (re.range "\u{30}" "\u{39}") (re.union  (str.to.re "\u{2d}")  (str.to.re "\u{20}"))) (re.++  (re.union (re.range "\u{30}" "\u{39}") (re.union  (str.to.re "\u{2d}")  (str.to.re "\u{20}"))) (re.++  (re.union (re.range "\u{30}" "\u{39}") (re.union  (str.to.re "\u{2d}")  (str.to.re "\u{20}")))  (re.union (re.range "\u{30}" "\u{39}") (re.union  (str.to.re "\u{2d}")  (str.to.re "\u{20}")))))))))))) (re.union  (re.++  (re.union (re.range "\u{30}" "\u{39}") (re.union  (str.to.re "\u{2d}")  (str.to.re "\u{20}")))   (re.++  (re.union (re.range "\u{30}" "\u{39}") (re.union  (str.to.re "\u{2d}")  (str.to.re "\u{20}")))   (re.++  (re.union (re.range "\u{30}" "\u{39}") (re.union  (str.to.re "\u{2d}")  (str.to.re "\u{20}")))   (re.++  (re.union (re.range "\u{30}" "\u{39}") (re.union  (str.to.re "\u{2d}")  (str.to.re "\u{20}")))   (re.++  (re.union (re.range "\u{30}" "\u{39}") (re.union  (str.to.re "\u{2d}")  (str.to.re "\u{20}")))   (re.++  (re.union (re.range "\u{30}" "\u{39}") (re.union  (str.to.re "\u{2d}")  (str.to.re "\u{20}"))) (re.++  (re.union (re.range "\u{30}" "\u{39}") (re.union  (str.to.re "\u{2d}")  (str.to.re "\u{20}"))) (re.++  (re.union (re.range "\u{30}" "\u{39}") (re.union  (str.to.re "\u{2d}")  (str.to.re "\u{20}"))) (re.++  (re.union (re.range "\u{30}" "\u{39}") (re.union  (str.to.re "\u{2d}")  (str.to.re "\u{20}"))) (re.++  (re.union (re.range "\u{30}" "\u{39}") (re.union  (str.to.re "\u{2d}")  (str.to.re "\u{20}")))  (re.union (re.range "\u{30}" "\u{39}") (re.union  (str.to.re "\u{2d}")  (str.to.re "\u{20}"))))))))))))) (re.union  (re.++  (re.union (re.range "\u{30}" "\u{39}") (re.union  (str.to.re "\u{2d}")  (str.to.re "\u{20}")))   (re.++  (re.union (re.range "\u{30}" "\u{39}") (re.union  (str.to.re "\u{2d}")  (str.to.re "\u{20}")))   (re.++  (re.union (re.range "\u{30}" "\u{39}") (re.union  (str.to.re "\u{2d}")  (str.to.re "\u{20}")))   (re.++  (re.union (re.range "\u{30}" "\u{39}") (re.union  (str.to.re "\u{2d}")  (str.to.re "\u{20}")))   (re.++  (re.union (re.range "\u{30}" "\u{39}") (re.union  (str.to.re "\u{2d}")  (str.to.re "\u{20}")))   (re.++  (re.union (re.range "\u{30}" "\u{39}") (re.union  (str.to.re "\u{2d}")  (str.to.re "\u{20}")))   (re.++  (re.union (re.range "\u{30}" "\u{39}") (re.union  (str.to.re "\u{2d}")  (str.to.re "\u{20}"))) (re.++  (re.union (re.range "\u{30}" "\u{39}") (re.union  (str.to.re "\u{2d}")  (str.to.re "\u{20}"))) (re.++  (re.union (re.range "\u{30}" "\u{39}") (re.union  (str.to.re "\u{2d}")  (str.to.re "\u{20}"))) (re.++  (re.union (re.range "\u{30}" "\u{39}") (re.union  (str.to.re "\u{2d}")  (str.to.re "\u{20}"))) (re.++  (re.union (re.range "\u{30}" "\u{39}") (re.union  (str.to.re "\u{2d}")  (str.to.re "\u{20}")))  (re.union (re.range "\u{30}" "\u{39}") (re.union  (str.to.re "\u{2d}")  (str.to.re "\u{20}"))))))))))))))  (re.++  (re.union (re.range "\u{30}" "\u{39}") (re.union  (str.to.re "\u{2d}")  (str.to.re "\u{20}")))   (re.++  (re.union (re.range "\u{30}" "\u{39}") (re.union  (str.to.re "\u{2d}")  (str.to.re "\u{20}")))   (re.++  (re.union (re.range "\u{30}" "\u{39}") (re.union  (str.to.re "\u{2d}")  (str.to.re "\u{20}")))   (re.++  (re.union (re.range "\u{30}" "\u{39}") (re.union  (str.to.re "\u{2d}")  (str.to.re "\u{20}")))   (re.++  (re.union (re.range "\u{30}" "\u{39}") (re.union  (str.to.re "\u{2d}")  (str.to.re "\u{20}")))   (re.++  (re.union (re.range "\u{30}" "\u{39}") (re.union  (str.to.re "\u{2d}")  (str.to.re "\u{20}")))   (re.++  (re.union (re.range "\u{30}" "\u{39}") (re.union  (str.to.re "\u{2d}")  (str.to.re "\u{20}")))   (re.++  (re.union (re.range "\u{30}" "\u{39}") (re.union  (str.to.re "\u{2d}")  (str.to.re "\u{20}"))) (re.++  (re.union (re.range "\u{30}" "\u{39}") (re.union  (str.to.re "\u{2d}")  (str.to.re "\u{20}"))) (re.++  (re.union (re.range "\u{30}" "\u{39}") (re.union  (str.to.re "\u{2d}")  (str.to.re "\u{20}"))) (re.++  (re.union (re.range "\u{30}" "\u{39}") (re.union  (str.to.re "\u{2d}")  (str.to.re "\u{20}"))) (re.++  (re.union (re.range "\u{30}" "\u{39}") (re.union  (str.to.re "\u{2d}")  (str.to.re "\u{20}")))  (re.union (re.range "\u{30}" "\u{39}") (re.union  (str.to.re "\u{2d}")  (str.to.re "\u{20}")))))))))))))))))))))) )))
(check-sat)
(get-model)