TCS_Benchmarks/redos_fix/regexlib2_output_distinct_3511_3510_1_0.txt
\d{2,5}
(\d{2,5})(\)?(\d|-| )?15)((\d|-| ){6,13})
(\d|-| ){6,13}